datasets/2-dimensional/CL_05_25_03.vbp
2
1000 1000 
25
79 89 30
29 80 72
34 47 4
36 56 88
75 49 54
69 67 64
35 28 90
88 97 26
71 92 94
76 79 28
68 74 72
40 46 49
83 59 54
90 56 19
51 79 28
58 44 61
78 42 84
28 41 23
75 33 67
34 33 53
48 84 54
58 26 16
31 28 9
34 55 54
83 99 77
