datasets/2-dimensional-benchmark/CL_05_25_03.txt
1000 1000 
0 30 79 89 
1 72 29 80 
2 4 34 47 
3 88 36 56 
4 54 75 49 
5 64 69 67 
6 90 35 28 
7 26 88 97 
8 94 71 92 
9 28 76 79 
10 72 68 74 
11 49 40 46 
12 54 83 59 
13 19 90 56 
14 28 51 79 
15 61 58 44 
16 84 78 42 
17 23 28 41 
18 67 75 33 
19 53 34 33 
20 54 48 84 
21 16 58 26 
22 9 31 28 
23 54 34 55 
24 77 83 99 
